9598.31,63.37,78.61
10748.37,56.59,70.2
11746.12,51.78,64.23
10262.19,59.27,73.52
10499.57,57.93,71.86
10011.73,60.75,75.36
9594.6,63.39,78.64
9969.16,61.01,75.68
11094.56,54.82,68.01
9334.87,65.15,80.82
9604.88,63.32,78.55
10737.87,56.64,70.26
10864.31,55.98,69.45
9752.78,62.36,77.36
11211.04,54.25,67.3
9782.22,62.18,77.13
9283.49,65.52,81.27
10117.92,60.11,74.57
9538.49,63.76,79.1
9129.46,66.62,82.64
